QPLIB_3815
QBL
minimize
192 # number of variables
64 # number of constraints
576 # number of quadratic terms in objective
2 1 -2.0
3 1 2.0
4 1 -2.0
5 1 -2.0
6 1 2.0
7 1 -2.0
8 2 2.0
9 2 2.0
10 2 2.0
11 2 2.0
12 2 -2.0
8 3 -2.0
13 3 2.0
14 3 2.0
15 3 2.0
16 3 2.0
9 4 2.0
13 4 -2.0
17 4 -2.0
18 4 2.0
19 4 2.0
10 5 -2.0
14 5 -2.0
17 5 2.0
20 5 -2.0
21 5 -2.0
11 6 2.0
15 6 2.0
18 6 -2.0
20 6 2.0
22 6 2.0
12 7 2.0
16 7 -2.0
19 7 -2.0
21 7 2.0
22 7 2.0
23 8 2.0
24 8 -2.0
25 8 -2.0
26 8 -2.0
23 9 2.0
27 9 2.0
28 9 2.0
29 9 -2.0
24 10 -2.0
27 10 2.0
30 10 -2.0
31 10 2.0
25 11 2.0
28 11 -2.0
30 11 -2.0
32 11 2.0
26 12 -2.0
29 12 -2.0
31 12 -2.0
32 12 2.0
23 13 -2.0
33 13 -2.0
34 13 -2.0
35 13 -2.0
24 14 2.0
33 14 2.0
36 14 2.0
37 14 -2.0
25 15 2.0
34 15 -2.0
36 15 2.0
38 15 -2.0
26 16 -2.0
35 16 2.0
37 16 -2.0
38 16 2.0
27 17 2.0
33 17 2.0
39 17 2.0
40 17 2.0
28 18 -2.0
34 18 -2.0
39 18 2.0
41 18 -2.0
29 19 2.0
35 19 2.0
40 19 -2.0
41 19 -2.0
30 20 -2.0
36 20 -2.0
39 20 2.0
42 20 -2.0
31 21 -2.0
37 21 2.0
40 21 2.0
42 21 2.0
32 22 -2.0
38 22 -2.0
41 22 -2.0
42 22 -2.0
43 23 2.0
44 23 2.0
45 23 2.0
43 24 2.0
46 24 2.0
47 24 2.0
44 25 -2.0
46 25 2.0
48 25 2.0
45 26 -2.0
47 26 -2.0
48 26 -2.0
43 27 2.0
49 27 -2.0
50 27 2.0
44 28 -2.0
49 28 -2.0
51 28 -2.0
45 29 2.0
50 29 2.0
51 29 2.0
46 30 -2.0
49 30 2.0
52 30 2.0
47 31 2.0
50 31 2.0
52 31 2.0
48 32 -2.0
51 32 2.0
52 32 2.0
43 33 -2.0
53 33 -2.0
54 33 2.0
44 34 2.0
53 34 -2.0
55 34 2.0
45 35 2.0
54 35 -2.0
55 35 -2.0
46 36 -2.0
53 36 2.0
56 36 -2.0
47 37 2.0
54 37 -2.0
56 37 2.0
48 38 -2.0
55 38 -2.0
56 38 -2.0
49 39 -2.0
53 39 2.0
57 39 -2.0
50 40 -2.0
54 40 2.0
57 40 -2.0
51 41 -2.0
55 41 -2.0
57 41 2.0
52 42 -2.0
56 42 2.0
57 42 2.0
58 43 -2.0
59 43 2.0
58 44 2.0
60 44 2.0
59 45 -2.0
60 45 2.0
58 46 2.0
61 46 -2.0
59 47 -2.0
61 47 2.0
60 48 2.0
61 48 -2.0
58 49 2.0
62 49 -2.0
59 50 -2.0
62 50 -2.0
60 51 -2.0
62 51 2.0
61 52 2.0
62 52 -2.0
58 53 -2.0
63 53 -2.0
59 54 2.0
63 54 -2.0
60 55 -2.0
63 55 2.0
61 56 -2.0
63 56 -2.0
62 57 -2.0
63 57 2.0
64 58 -2.0
64 59 -2.0
64 60 2.0
64 61 2.0
64 62 2.0
64 63 -2.0
66 65 -2.0
67 65 2.0
68 65 -2.0
69 65 -2.0
70 65 2.0
71 65 -2.0
72 66 2.0
73 66 2.0
74 66 2.0
75 66 2.0
76 66 -2.0
72 67 -2.0
77 67 2.0
78 67 2.0
79 67 2.0
80 67 2.0
73 68 2.0
77 68 -2.0
81 68 -2.0
82 68 2.0
83 68 2.0
74 69 -2.0
78 69 -2.0
81 69 2.0
84 69 -2.0
85 69 -2.0
75 70 2.0
79 70 2.0
82 70 -2.0
84 70 2.0
86 70 2.0
76 71 2.0
80 71 -2.0
83 71 -2.0
85 71 2.0
86 71 2.0
87 72 2.0
88 72 -2.0
89 72 -2.0
90 72 -2.0
87 73 2.0
91 73 2.0
92 73 2.0
93 73 -2.0
88 74 -2.0
91 74 2.0
94 74 -2.0
95 74 2.0
89 75 2.0
92 75 -2.0
94 75 -2.0
96 75 2.0
90 76 -2.0
93 76 -2.0
95 76 -2.0
96 76 2.0
87 77 -2.0
97 77 -2.0
98 77 -2.0
99 77 -2.0
88 78 2.0
97 78 2.0
100 78 2.0
101 78 -2.0
89 79 2.0
98 79 -2.0
100 79 2.0
102 79 -2.0
90 80 -2.0
99 80 2.0
101 80 -2.0
102 80 2.0
91 81 2.0
97 81 2.0
103 81 2.0
104 81 2.0
92 82 -2.0
98 82 -2.0
103 82 2.0
105 82 -2.0
93 83 2.0
99 83 2.0
104 83 -2.0
105 83 -2.0
94 84 -2.0
100 84 -2.0
103 84 2.0
106 84 -2.0
95 85 -2.0
101 85 2.0
104 85 2.0
106 85 2.0
96 86 -2.0
102 86 -2.0
105 86 -2.0
106 86 -2.0
107 87 2.0
108 87 2.0
109 87 2.0
107 88 2.0
110 88 2.0
111 88 2.0
108 89 -2.0
110 89 2.0
112 89 2.0
109 90 -2.0
111 90 -2.0
112 90 -2.0
107 91 2.0
113 91 -2.0
114 91 2.0
108 92 -2.0
113 92 -2.0
115 92 -2.0
109 93 2.0
114 93 2.0
115 93 2.0
110 94 -2.0
113 94 2.0
116 94 2.0
111 95 2.0
114 95 2.0
116 95 2.0
112 96 -2.0
115 96 2.0
116 96 2.0
107 97 -2.0
117 97 -2.0
118 97 2.0
108 98 2.0
117 98 -2.0
119 98 2.0
109 99 2.0
118 99 -2.0
119 99 -2.0
110 100 -2.0
117 100 2.0
120 100 -2.0
111 101 2.0
118 101 -2.0
120 101 2.0
112 102 -2.0
119 102 -2.0
120 102 -2.0
113 103 -2.0
117 103 2.0
121 103 -2.0
114 104 -2.0
118 104 2.0
121 104 -2.0
115 105 -2.0
119 105 -2.0
121 105 2.0
116 106 -2.0
120 106 2.0
121 106 2.0
122 107 -2.0
123 107 2.0
122 108 2.0
124 108 2.0
123 109 -2.0
124 109 2.0
122 110 2.0
125 110 -2.0
123 111 -2.0
125 111 2.0
124 112 2.0
125 112 -2.0
122 113 2.0
126 113 -2.0
123 114 -2.0
126 114 -2.0
124 115 -2.0
126 115 2.0
125 116 2.0
126 116 -2.0
122 117 -2.0
127 117 -2.0
123 118 2.0
127 118 -2.0
124 119 -2.0
127 119 2.0
125 120 -2.0
127 120 -2.0
126 121 -2.0
127 121 2.0
128 122 -2.0
128 123 -2.0
128 124 2.0
128 125 2.0
128 126 2.0
128 127 -2.0
130 129 -2.0
131 129 2.0
132 129 -2.0
133 129 -2.0
134 129 2.0
135 129 -2.0
136 130 2.0
137 130 2.0
138 130 2.0
139 130 2.0
140 130 -2.0
136 131 -2.0
141 131 2.0
142 131 2.0
143 131 2.0
144 131 2.0
137 132 2.0
141 132 -2.0
145 132 -2.0
146 132 2.0
147 132 2.0
138 133 -2.0
142 133 -2.0
145 133 2.0
148 133 -2.0
149 133 -2.0
139 134 2.0
143 134 2.0
146 134 -2.0
148 134 2.0
150 134 2.0
140 135 2.0
144 135 -2.0
147 135 -2.0
149 135 2.0
150 135 2.0
151 136 2.0
152 136 -2.0
153 136 -2.0
154 136 -2.0
151 137 2.0
155 137 2.0
156 137 2.0
157 137 -2.0
152 138 -2.0
155 138 2.0
158 138 -2.0
159 138 2.0
153 139 2.0
156 139 -2.0
158 139 -2.0
160 139 2.0
154 140 -2.0
157 140 -2.0
159 140 -2.0
160 140 2.0
151 141 -2.0
161 141 -2.0
162 141 -2.0
163 141 -2.0
152 142 2.0
161 142 2.0
164 142 2.0
165 142 -2.0
153 143 2.0
162 143 -2.0
164 143 2.0
166 143 -2.0
154 144 -2.0
163 144 2.0
165 144 -2.0
166 144 2.0
155 145 2.0
161 145 2.0
167 145 2.0
168 145 2.0
156 146 -2.0
162 146 -2.0
167 146 2.0
169 146 -2.0
157 147 2.0
163 147 2.0
168 147 -2.0
169 147 -2.0
158 148 -2.0
164 148 -2.0
167 148 2.0
170 148 -2.0
159 149 -2.0
165 149 2.0
168 149 2.0
170 149 2.0
160 150 -2.0
166 150 -2.0
169 150 -2.0
170 150 -2.0
171 151 2.0
172 151 2.0
173 151 2.0
171 152 2.0
174 152 2.0
175 152 2.0
172 153 -2.0
174 153 2.0
176 153 2.0
173 154 -2.0
175 154 -2.0
176 154 -2.0
171 155 2.0
177 155 -2.0
178 155 2.0
172 156 -2.0
177 156 -2.0
179 156 -2.0
173 157 2.0
178 157 2.0
179 157 2.0
174 158 -2.0
177 158 2.0
180 158 2.0
175 159 2.0
178 159 2.0
180 159 2.0
176 160 -2.0
179 160 2.0
180 160 2.0
171 161 -2.0
181 161 -2.0
182 161 2.0
172 162 2.0
181 162 -2.0
183 162 2.0
173 163 2.0
182 163 -2.0
183 163 -2.0
174 164 -2.0
181 164 2.0
184 164 -2.0
175 165 2.0
182 165 -2.0
184 165 2.0
176 166 -2.0
183 166 -2.0
184 166 -2.0
177 167 -2.0
181 167 2.0
185 167 -2.0
178 168 -2.0
182 168 2.0
185 168 -2.0
179 169 -2.0
183 169 -2.0
185 169 2.0
180 170 -2.0
184 170 2.0
185 170 2.0
186 171 -2.0
187 171 2.0
186 172 2.0
188 172 2.0
187 173 -2.0
188 173 2.0
186 174 2.0
189 174 -2.0
187 175 -2.0
189 175 2.0
188 176 2.0
189 176 -2.0
186 177 2.0
190 177 -2.0
187 178 -2.0
190 178 -2.0
188 179 -2.0
190 179 2.0
189 180 2.0
190 180 -2.0
186 181 -2.0
191 181 -2.0
187 182 2.0
191 182 -2.0
188 183 -2.0
191 183 2.0
189 184 -2.0
191 184 -2.0
190 185 -2.0
191 185 2.0
192 186 -2.0
192 187 -2.0
192 188 2.0
192 189 2.0
192 190 2.0
192 191 -2.0
0.0 # default value for linear coefficients in objective
0 # number of non-default linear coefficients in objective
0.0 # objective constant
192 # number of linear terms in all constraints
1 1 1.0
1 65 1.0
1 129 1.0
2 2 1.0
2 66 1.0
2 130 1.0
3 8 1.0
3 72 1.0
3 136 1.0
4 3 1.0
4 67 1.0
4 131 1.0
5 4 1.0
5 68 1.0
5 132 1.0
6 9 1.0
6 73 1.0
6 137 1.0
7 23 1.0
7 87 1.0
7 151 1.0
8 13 1.0
8 77 1.0
8 141 1.0
9 17 1.0
9 81 1.0
9 145 1.0
10 27 1.0
10 91 1.0
10 155 1.0
11 43 1.0
11 107 1.0
11 171 1.0
12 33 1.0
12 97 1.0
12 161 1.0
13 5 1.0
13 69 1.0
13 133 1.0
14 10 1.0
14 74 1.0
14 138 1.0
15 24 1.0
15 88 1.0
15 152 1.0
16 14 1.0
16 78 1.0
16 142 1.0
17 6 1.0
17 70 1.0
17 134 1.0
18 11 1.0
18 75 1.0
18 139 1.0
19 25 1.0
19 89 1.0
19 153 1.0
20 15 1.0
20 79 1.0
20 143 1.0
21 18 1.0
21 82 1.0
21 146 1.0
22 28 1.0
22 92 1.0
22 156 1.0
23 44 1.0
23 108 1.0
23 172 1.0
24 34 1.0
24 98 1.0
24 162 1.0
25 39 1.0
25 103 1.0
25 167 1.0
26 49 1.0
26 113 1.0
26 177 1.0
27 58 1.0
27 122 1.0
27 186 1.0
28 53 1.0
28 117 1.0
28 181 1.0
29 20 1.0
29 84 1.0
29 148 1.0
30 30 1.0
30 94 1.0
30 158 1.0
31 46 1.0
31 110 1.0
31 174 1.0
32 36 1.0
32 100 1.0
32 164 1.0
33 22 1.0
33 86 1.0
33 150 1.0
34 32 1.0
34 96 1.0
34 160 1.0
35 48 1.0
35 112 1.0
35 176 1.0
36 38 1.0
36 102 1.0
36 166 1.0
37 41 1.0
37 105 1.0
37 169 1.0
38 51 1.0
38 115 1.0
38 179 1.0
39 60 1.0
39 124 1.0
39 188 1.0
40 55 1.0
40 119 1.0
40 183 1.0
41 57 1.0
41 121 1.0
41 185 1.0
42 62 1.0
42 126 1.0
42 190 1.0
43 64 1.0
43 128 1.0
43 192 1.0
44 63 1.0
44 127 1.0
44 191 1.0
45 42 1.0
45 106 1.0
45 170 1.0
46 52 1.0
46 116 1.0
46 180 1.0
47 61 1.0
47 125 1.0
47 189 1.0
48 56 1.0
48 120 1.0
48 184 1.0
49 7 1.0
49 71 1.0
49 135 1.0
50 12 1.0
50 76 1.0
50 140 1.0
51 26 1.0
51 90 1.0
51 154 1.0
52 16 1.0
52 80 1.0
52 144 1.0
53 19 1.0
53 83 1.0
53 147 1.0
54 29 1.0
54 93 1.0
54 157 1.0
55 45 1.0
55 109 1.0
55 173 1.0
56 35 1.0
56 99 1.0
56 163 1.0
57 40 1.0
57 104 1.0
57 168 1.0
58 50 1.0
58 114 1.0
58 178 1.0
59 59 1.0
59 123 1.0
59 187 1.0
60 54 1.0
60 118 1.0
60 182 1.0
61 21 1.0
61 85 1.0
61 149 1.0
62 31 1.0
62 95 1.0
62 159 1.0
63 47 1.0
63 111 1.0
63 175 1.0
64 37 1.0
64 101 1.0
64 165 1.0
1.79769313486232E+308 # value for infinity
1.0 # default left-hand-side value
0 # number of non-default left-hand-sides
1.0 # default right-hand-side value
0 # number of non-default right-hand-sides
0.0 # default variable primal value in starting point
0 # number of non-default variable primal values in starting point
0.0 # default constraint dual value in starting point
0 # number of non-default constraint dual values in starting point
0.0 # default variable bound dual value in starting point
0 # number of non-default variable bound dual values in starting point
0 # number of non-default variable names
0 # number of non-default constraint names
